&GLOBAL
  PROJECT EM                     ! Name of the calculation
  PRINT_LEVEL LOW                ! Verbosity of the output
  RUN_TYPE GEO_OPT               ! Calculation type: Geometry optimization
&END GLOBAL

&FORCE_EVAL                      ! parameters needed to calculate energy and forces
  METHOD FIST                    ! classical MM in CP2K using the FIST algorithm
  &MM                            ! Parameters to run a MM calculation
    &FORCEFIELD                  ! Set up a force_field for the classical calculations
      PARMTYPE AMBER             ! Kind of torsion potential
      ! Filename that contains the parameters of the FF
      PARM_FILE_NAME system.parm7
      &SPLINE                    ! Parameters to set up the splines used in the nonboned interactions
        EMAX_SPLINE 1.0E8        ! Maximum value of the potential up to which splines will be constructed
        RCUT_NB [angstrom] 10    ! Cutoff radius for nonbonded interactions
      &END SPLINE
    &END FORCEFIELD
    &POISSON
      &EWALD
      ! Ewald parameters controlling electrostatic
        EWALD_TYPE SPME          ! Type of ewald
        ALPHA .40                ! Alpha parameter associated with Ewald (EWALD|PME|SPME)
        GMAX 80                  ! Number of grid points (SPME and EWALD)
      &END EWALD
    &END POISSON
  &END MM

  &SUBSYS                        ! a subsystem: coordinates, topology, molecules and cell
    &CELL                        !Set box dimensions here
      ABC [angstrom] 87.7209030  87.9216130  87.6723290 
      ALPHA_BETA_GAMMA 90.0 90.0 90.0
    &END CELL
    &TOPOLOGY                    ! Topology for classical runs
      CONN_FILE_FORMAT AMBER
      CONN_FILE_NAME system.parm7
      COORD_FILE_FORMAT CRD
      COORD_FILE_NAME system.min0.rst7
    &END TOPOLOGY
    !NA+ is not recognized by CP2K, so it is necessary to define it here using KIND
    &KIND NA+
     ELEMENT Na
    &END KIND
    &KIND NS
     ELEMENT N
    &END KIND
    &KIND NS3
     ELEMENT N
    &END KIND
    &KIND NS4
     ELEMENT N
    &END KIND
    &KIND NS1
     ELEMENT N
    &END KIND
    &KIND NS2
     ELEMENT N
    &END KIND
  &END SUBSYS
&END FORCE_EVAL

&MOTION                            ! Parameter for the motion of the nuclei
&GEO_OPT
  OPTIMIZER LBFGS
  MAX_ITER 1000
  MAX_DR    1.0E-02 !Convergence criterion for the maximum geometry change between the current and the last optimizer iteration
  RMS_DR    5.0E-03 !Convergence criterion for the root mean square (RMS) geometry change between the current and the last optimizer iteration
  MAX_FORCE 1.0E-02 !Convergence criterion for the maximum force component of the current configuration
  RMS_FORCE 5.0E-03 !Convergence criterion for the root mean square (RMS) force of the current configuration

&END
&PRINT
  &TRAJECTORY                                 ! Controls the output of the trajectory
    FORMAT PDB                                ! Format of the output trajectory is PDB
    &EACH                                     ! New trajectory frame will be printed each 100 md steps
      GEO_OPT 200
    &END EACH
  &END TRAJECTORY
  &RESTART                                    ! This section controls the printing of restart files
    &EACH                                     ! A restart file will be printed every 10000 md steps
      GEO_OPT 500
    &END EACH
  &END RESTART
  &RESTART_HISTORY                            ! This section controls dumping of unique restart files during the run keeping all of them.Most useful if recovery is needed at a later point.
    &EACH                                     ! A new restart file will be printed every 10000 md steps
      GEO_OPT 500
    &END EACH
  &END RESTART_HISTORY
&END PRINT
&END MOTION
