&GLOBAL
  PROJECT MONITOR                ! Name of the calculation
  PRINT_LEVEL LOW                ! Verbosity of the output
  RUN_TYPE MD                    ! Calculation type: MD
&END GLOBAL

&FORCE_EVAL                      ! parameters needed to calculate energy and forces
  METHOD QMMM                    ! Hybrid quantum classical
  STRESS_TENSOR ANALYTICAL       ! Compute the stress tensor analytically (if available).
  &DFT                           ! Parameter needed by LCAO DFT programs
  CHARGE -1                      ! The charge of the QM system
  &QS                            ! parameters needed to set up the Quickstep framework
    METHOD PM3                   ! Specifies the electronic structure method that should be employed
    &SE                          ! Parameters needed to set up the Semi-empirical methods
       &COULOMB                  ! parameters for the evaluation of the COULOMB term
         CUTOFF [angstrom] 10.0
       &END
       &EXCHANGE               ! parameters for the evaluation of the EXCHANGE and core Hamiltonian terms
         CUTOFF [angstrom] 10.0
       &END
    &END
  &END QS
  &SCF                         ! Parameters needed to perform an SCF run
   MAX_SCF 30                 ! Maximum number of SCF iterations
   EPS_SCF 1.0E-6             ! Target accuracy for the SCF convergence
   SCF_GUESS ATOMIC           ! initial guess for the wavefunction: Generate an atomic density using the atomic code
   &OT                        ! options for the orbital transformation (OT) method
     MINIMIZER DIIS           ! Minimizer to be used with the OT method
     PRECONDITIONER FULL_SINGLE_INVERSE
   &END
   &OUTER_SCF                 ! parameters controlling the outer SCF loop
     EPS_SCF 1.0E-6           ! Target gradient of the outer SCF variables
     MAX_SCF 10               ! Maximum number of outer loops
   &END
   &PRINT
      &RESTART OFF
      &END
      &RESTART_HISTORY OFF
      &END
    &END
  &END SCF
  &END DFT

  &MM                            ! Parameters to run a MM calculation
    &FORCEFIELD                  ! Set up a force_field for the classical calculations
      PARMTYPE AMBER             ! Kind of torsion potential
      ! Filename that contains the parameters of the FF
      PARM_FILE_NAME system_qm-charge.parm7
      &SPLINE                    ! Parameters to set up the splines used in the nonboned interactions
        EMAX_SPLINE 1.0E8        ! Maximum value of the potential up to which splines will be constructed
        RCUT_NB [angstrom] 10    ! Cutoff radius for nonbonded interactions
      &END SPLINE
    &END FORCEFIELD
    &POISSON
      &EWALD
      ! Ewald parameters controlling electrostatic
        EWALD_TYPE SPME          ! Type of ewald
        ALPHA .40                ! Alpha parameter associated with Ewald (EWALD|PME|SPME)
        GMAX 80                  ! Number of grid points (SPME and EWALD)
      &END EWALD
    &END POISSON
  &END MM

  &SUBSYS                        ! a subsystem: coordinates, topology, molecules and cell
    &CELL                        !Set box dimensions here
      ABC [angstrom] 81.739708669099997  81.926733384589994  81.694446656590003
      ALPHA_BETA_GAMMA 90.0 90.0 90.0
    &END CELL
    &TOPOLOGY                    ! Topology for classical runs
      CONN_FILE_FORMAT AMBER
      CONN_FILE_NAME system_qm-charge.parm7
    &END TOPOLOGY
    !NA+ is not recognized by CP2K, so it is necessary to define it here using KIND
    &KIND NA+
     ELEMENT Na
    &END KIND
    &KIND NS
     ELEMENT N
    &END KIND
    &KIND NS3
     ELEMENT N
    &END KIND
    &KIND NS4
     ELEMENT N
    &END KIND
    &KIND NS1
     ELEMENT N
    &END KIND
    &KIND NS2
     ELEMENT N
    &END KIND
  &END SUBSYS
  &QMMM                            ! Input for QM/MM calculations
    ECOUPL COULOMB                 ! type of the QM - MM electrostatic coupling
    &CELL                          ! Set box dimensions here
      ABC 40 40 40
      ALPHA_BETA_GAMMA 90 90 90
    &END CELL
      &QM_KIND  H
         MM_INDEX 5663
         MM_INDEX 5664
         MM_INDEX 5665
         MM_INDEX 5666
         MM_INDEX 5667
         MM_INDEX 5669
         MM_INDEX 5670
         MM_INDEX 5686
         MM_INDEX 1414
         MM_INDEX 1415
         MM_INDEX 1417
         MM_INDEX 1418
         MM_INDEX 1420
         MM_INDEX 1421
         MM_INDEX 1423
         MM_INDEX 1426
         MM_INDEX 1427
         MM_INDEX 1429
         MM_INDEX 1430
      &END QM_KIND
      &QM_KIND  C
         MM_INDEX 5668
         MM_INDEX 5671
         MM_INDEX 5673
         MM_INDEX 5675
         MM_INDEX 5677
         MM_INDEX 5679
         MM_INDEX 5681
         MM_INDEX 5683
         MM_INDEX 5684
         MM_INDEX 5685
         MM_INDEX 1413
         MM_INDEX 1416
         MM_INDEX 1419
         MM_INDEX 1424
      &END QM_KIND
      &QM_KIND  O
         MM_INDEX 5672
         MM_INDEX 5674
         MM_INDEX 5676
         MM_INDEX 5678
         MM_INDEX 5680
         MM_INDEX 5682
      &END QM_KIND
      &QM_KIND  N
         MM_INDEX 1422
         MM_INDEX 1425
         MM_INDEX 1428
      &END QM_KIND
      &LINK
        MM_INDEX  1411
        QM_INDEX  1413
        LINK_TYPE IMOMM
      &END LINK
  &END QMMM
&END FORCE_EVAL

&MOTION                            ! Parameter for the motion of the nuclei
  &MD                              ! set of parameters needed perform an MD run
  ENSEMBLE NVT                     ! Ensemble/integrator that you want to use for MD
  TIMESTEP [fs] 0.5                ! Time step
  STEPS    10000                   ! Number of MD steps to perform
  TEMPERATURE 298                  ! Temperature in K
  &THERMOSTAT                      ! Parameters of Thermostat.
    REGION GLOBAL                  ! region each thermostat is attached to.
    TYPE CSVR                      ! canonical sampling through velocity rescaling
    &CSVR
      TIMECON [fs] 100.
    &END CSVR
  &END THERMOSTAT
  COMVEL_TOL 1e-8                  ! remove COM motion
  &END MD
  
  &FREE_ENERGY
     &METADYN 
       USE_PLUMED .TRUE.
       PLUMED_INPUT_FILE ./plumed-monitor.dat
     &END METADYN
  &END FREE_ENERGY
  &PRINT                           ! Printing properties during an MD run
    &RESTART                       ! Printing of restart files
      &EACH                        ! A restart file will be printed every 25000 md steps
        MD 5000
      &END
    &END
    &TRAJECTORY                    ! Controls the output of the trajectory
      FORMAT DCD                   ! Format of the output trajectory is DCD
      &EACH                        ! New trajectory frame will be printed each 5000 md steps
        MD 1000
      &END
    &END
    &RESTART_HISTORY               ! Controls printing of unique restart files during the run keeping all of them.
      &EACH                        ! A new restart file will be printed every 5000 md steps
        MD 5000
      &END
    &END
  &END PRINT
&END MOTION

&EXT_RESTART
  RESTART_FILE_NAME NPT-1.restart
  RESTART_COUNTERS .FALSE.
  RESTART_THERMOSTAT .FALSE.
&END
